NAME lp_typeD_863
OBJSENSE MAX
ROWS
 N  OBJ
 L  c0      
 L  c1      
 G  c2      
 G  c3      
 G  c4      
 L  c_key_upper
 G  c_key_lower
 G  _chain_constr_1
 G  _chain_constr_2
 G  _chain_constr_3
 G  _chain_cycle
COLUMNS
    x0        OBJ       5.6495109711179858e-01
    x0        c0        1.5976963605397088e+00
    x0        c1        9.2132820397873627e-01
    x0        c2        6.0904166228322132e-01
    x0        c3        5.2000321199578181e-01
    x0        c4        5.9321249986022773e-01
    x0        c_key_upper  1.0068480022430490e+00
    x0        c_key_lower  1.0068480022430490e+00
    x1        OBJ       1.3294053435407975e+00
    x1        c0        1.2818913822244153e+00
    x1        c1        0.906214835545115
    x1        c2        1.4740845328361638e+00
    x1        c3        9.6487693801419949e-01
    x1        c4        7.5066835780325114e-01
    x1        c_key_upper  1.4078955936511655e+00
    x1        c_key_lower  1.4078955936511655e+00
    x2        OBJ       1.4007786340709820e+00
    x2        c0        7.3247101255625857e-01
    x2        c1        1.9134854439590991e+00
    x2        c2        1.9881052662472718e+00
    x2        c3        8.8090689144453660e-01
    x2        c4        5.4490284533722244e-01
    x2        c_key_upper  1.2657663197805773e+00
    x2        c_key_lower  1.2657663197805773e+00
    x3        OBJ       0.557024230604001
    x3        c0        6.9020751547496850e-01
    x3        c1        1.6311503244571410e+00
    x3        c2        1.7365104836666019e+00
    x3        c3        1.0259267069879083e+00
    x3        c4        6.7073370548214450e-01
    x3        c_key_upper  1.4931810469144318e+00
    x3        c_key_lower  1.4931810469144318e+00
    x4        OBJ       6.8752242746611425e-01
    x4        c0        1.0439611779130047e+00
    x4        c1        1.1792222202809879e+00
    x4        c2        1.1228913433790444e+00
    x4        c3        5.5184143748208592e-01
    x4        c4        1.1977716635529982e+00
    x4        c_key_upper  1.1128153298026764e+00
    x4        c_key_lower  1.1128153298026764e+00
    _chain_var_0  _chain_constr_1  -1
    _chain_var_0  _chain_cycle  1
    _chain_var_1  _chain_constr_1  1
    _chain_var_1  _chain_constr_2  -1
    _chain_var_2  _chain_constr_2  1
    _chain_var_2  _chain_constr_3  -1
    _chain_var_3  _chain_constr_3  1
    _chain_var_3  _chain_cycle  -1
RHS
    RHS1      c0        2.5769148079458393e+01
    RHS1      c1        2.8816497826823920e+01
    RHS1      c2        1.0992435865867572e+01
    RHS1      c3        6.7893538837949494e+00
    RHS1      c4        4.3054009094935850e+00
    RHS1      c_key_upper  31.4325314619595
    RHS1      c_key_lower  1.5716265730979750e+01
    RHS1      _chain_constr_1  10
    RHS1      _chain_constr_2  10
    RHS1      _chain_constr_3  10
    RHS1      _chain_cycle  10
BOUNDS
 UP BND1      x0        10
 UP BND1      x1        10
 UP BND1      x2        10
 UP BND1      x3        10
 UP BND1      x4        10
 UP BND1      _chain_var_0  100
 UP BND1      _chain_var_1  100
 UP BND1      _chain_var_2  100
 UP BND1      _chain_var_3  100
ENDATA
